n = 19;
budget = 800000;
groceries = [|3550,50,230,270,71,1085|1575,196,119,35,60,1068|2964,168,222,156,126,1361|2556,72,243,144,52,2034|1976,152,288,24,86,3889|3368,176,144,232,129,2589|2240,105,14,196,57,1744|4320,100,620,160,182,1957|3440,56,408,176,186,2626|3640,120,592,88,55,2329|2838,12,306,174,131,2816|4000,120,340,240,169,3461|948,30,126,36,183,2335|3290,7,28,350,84,3937|2425,75,25,225,146,2113|1253,42,161,49,63,2619|4293,18,144,405,196,3905|1672,64,264,40,174,2335|3630,60,240,270,117,2932|];
requirements = [|23440,27135|608,809|3200,3520|912,1091|];